
Log started (V12.10.0.0) Fri Apr  9 00:30:27 2021


Problem 'asset.lp' read.
Read time = 0.00 sec. (0.16 ticks)
New value for default parallel thread count: 1
New value for time limit in seconds: 200
Version identifier: 12.10.0.0 | 2019-11-26 | 843d4de
CPXPARAM_Threads                                 1
CPXPARAM_TimeLimit                               200
Found incumbent of value -0.904059 after 0.00 sec. (0.08 ticks)
Tried aggregator 3 times.
MIP Presolve eliminated 443 rows and 289 columns.
MIP Presolve modified 1206 coefficients.
Aggregator did 438 substitutions.
Reduced MIP has 606 rows, 699 columns, and 2895 nonzeros.
Reduced MIP has 578 binaries, 87 generals, 0 SOSs, and 0 indicators.
Presolve time = 0.01 sec. (6.43 ticks)
Probing fixed 40 vars, tightened 2 bounds.
Probing time = 0.00 sec. (2.01 ticks)
Cover probing fixed 0 vars, tightened 34 bounds.
Tried aggregator 1 time.
Detecting symmetries...
MIP Presolve eliminated 48 rows and 48 columns.
MIP Presolve modified 300 coefficients.
Reduced MIP has 558 rows, 651 columns, and 2564 nonzeros.
Reduced MIP has 532 binaries, 85 generals, 0 SOSs, and 0 indicators.
Presolve time = 0.00 sec. (2.80 ticks)
Probing time = 0.00 sec. (1.68 ticks)
Clique table members: 1772.
MIP emphasis: balance optimality and feasibility.
MIP search method: dynamic search.
Parallel mode: none, using 1 thread.
Root relaxation solution time = 0.01 sec. (5.94 ticks)

        Nodes                                         Cuts/
   Node  Left     Objective  IInf  Best Integer    Best Bound    ItCnt     Gap

*     0+    0                           -0.9041      357.4859              --- 
      0     0      288.0844   144       -0.9041      288.0844      497     --- 
      0     0      288.0675   144       -0.9041     Cuts: 239      724     --- 
      0     0      287.4912   144       -0.9041     Cuts: 207     1084     --- 
      0     0      285.5079   144       -0.9041     Cuts: 149     1220     --- 
      0     0      284.8480   144       -0.9041     Cuts: 153     1377     --- 
      0     0      284.8382   144       -0.9041      Cuts: 94     1472     --- 
Detecting symmetries...
      0     0      284.6159   144       -0.9041      Cuts: 99     1572     --- 
      0     0      284.3220   144       -0.9041      Cuts: 92     1643     --- 
      0     0      284.1377   144       -0.9041     Cuts: 140     1773     --- 
      0     0      283.9791   144       -0.9041     Cuts: 101     1860     --- 
      0     0      283.9676   144       -0.9041     Cuts: 130     1936     --- 
*     0+    0                           16.8943      283.9676              --- 
*     0+    0                           98.0727      283.9676           189.55%
*     0+    0                          173.5876      283.9676            63.59%
*     0+    0                          174.2282      283.9676            62.99%
*     0+    0                          188.2844      283.9676            50.82%
      0     0        cutoff            188.2844      283.9676     1936   50.82%
Detecting symmetries...
      0     2      283.9676   182      188.2844      283.9549     1936   50.81%
Elapsed time = 0.25 sec. (240.13 ticks, tree = 0.01 MB, solutions = 5)
*    30+   30                          243.5494      283.2617            16.31%
    150   132      273.7123   115      243.5494      283.2317     7546   16.29%
*   260+  236                          243.6121      283.1319            16.22%
*   360+  323                          248.5003      283.1248            13.93%
    381   342      269.8674   110      248.5003      283.1242    12900   13.93%

Performing restart 1

Repeating presolve.
Tried aggregator 1 time.
MIP Presolve modified 501 coefficients.
Reduced MIP has 558 rows, 651 columns, and 2243 nonzeros.
Reduced MIP has 532 binaries, 85 generals, 0 SOSs, and 0 indicators.
Presolve time = 0.00 sec. (2.20 ticks)
Tried aggregator 1 time.
Reduced MIP has 558 rows, 651 columns, and 2243 nonzeros.
Reduced MIP has 532 binaries, 85 generals, 0 SOSs, and 0 indicators.
Presolve time = 0.00 sec. (1.74 ticks)
Represolve time = 0.01 sec. (10.60 ticks)
    533     0      282.1462   161      248.5003     Cuts: 162    17831   13.54%
    533     0      280.1941   161      248.5003     Cuts: 173    18275   12.75%
    533     0      279.7770   161      248.5003     Cuts: 154    18467   12.59%
    533     0      279.4085   161      248.5003      Cuts: 90    18718   12.44%
    533     0      279.1470   161      248.5003     Cuts: 149    19128   12.33%
*   533+    0                          248.5009      279.1470            12.33%
    533     0      278.9109   161      248.5009     Cuts: 120    19370   12.24%
    533     0      278.8770   161      248.5009      Cuts: 92    19505   12.22%
    533     0      278.8745   161      248.5009     Cuts: 105    19655   12.22%
    533     0      278.8246   161      248.5009      Cuts: 66    19862   12.20%
    533     0      278.8194   161      248.5009      Cuts: 92    20013   12.20%
    533     0      278.8189   161      248.5009      Cuts: 58    20060   12.20%
    533     0      278.7808   161      248.5009      Cuts: 17    20287   12.19%
    533     0      278.6847   161      248.5009      Cuts: 70    20381   12.15%
    533     0      278.6545   161      248.5009      Cuts: 49    20440   12.13%
    533     0      277.8373   161      248.5009      Cuts: 44    20789   11.81%
*   533+    0                          248.5010      277.8373            11.81%
*   533+    0                          248.5015      277.8373            11.81%
    533     0        cutoff            248.5015      277.8373    20789   11.81%
    533     0      277.7213   161      248.5015     Cuts: 135    20972   11.76%
    533     0      277.5796   161      248.5015      Cuts: 62    21113   11.70%
    533     0      277.5321   161      248.5015      Cuts: 61    21304   11.68%
    533     0      277.3754   161      248.5015      Cuts: 99    21535   11.62%
    533     0      277.3383   161      248.5015      Cuts: 85    21670   11.60%
    533     0      277.2321   161      248.5015      Cuts: 68    21844   11.56%
    533     0      277.1666   161      248.5015      Cuts: 82    22004   11.54%
    533     0      277.1549   161      248.5015      Cuts: 48    22105   11.53%
    533     0      277.1449   161      248.5015      Cuts: 47    22172   11.53%
    533     0      277.1412   161      248.5015      Cuts: 43    22240   11.52%
*   533+    0                          248.5016      277.1412            11.52%
*   533+    0                          248.5022      277.1412            11.52%
    533     2      277.1412   145      248.5022      277.1311    22240   11.52%
    538     7      270.6019   123      248.5022      276.5028    23453   11.27%
    544    13      266.1569   108      248.5022      276.5028    25092   11.27%
    552    18      257.6009    86      248.5022      276.5028    26019   11.27%
    580    37      258.9035    71      248.5022      275.8100    27625   10.99%
    622    64      272.9278   126      248.5022      274.5925    30338   10.50%
    675    93      260.4619   112      248.5022      272.5522    35474    9.68%
*   733+  115                          252.4219      270.3021             7.08%
*   743+  125                          252.4221      270.3021             7.08%
*   753+  135                          252.4233      270.3021             7.08%
*   753+  135                          252.4235      270.3021             7.08%
    865   183      260.9621    94      252.4235      266.2295    47629    5.47%
Elapsed time = 4.48 sec. (5176.24 ticks, tree = 0.17 MB, solutions = 17)
*   943+  201                          252.6577      264.9777             4.88%
*  1043+  241                          252.6640      264.3768             4.64%
   1082   263      257.9417   109      252.6640      263.8119    59986    4.41%
*  1173+  251                          253.2912      262.7311             3.73%
*  1173+  251                          253.2915      262.7311             3.73%
*  1183+  261                          253.2932      262.7311             3.73%
*  1183+  261                          253.2934      262.7311             3.73%
   1296   337      259.1151   110      253.2934      262.3746    70393    3.59%
   1503   429      254.2531   102      253.2934      261.8271    83281    3.37%
   1756   538      260.9418    94      253.2934      261.2764    96408    3.15%
   2020   663      254.4652   106      253.2934      260.5097   109138    2.85%
   2262   722        cutoff            253.2934      259.6346   122056    2.50%
*  2423+  741                          253.2937      259.1683             2.32%
*  2523+  774                          253.2939      259.0891             2.29%
   2523   774    infeasible            253.2939      259.0891   135250    2.29%
   2846   859      253.2969    81      253.2939      257.8761   148948    1.81%
   3301  1064        cutoff            253.2939      257.3381   162475    1.60%
   3714  1168      255.7994    87      253.2939      256.8018   176090    1.38%
Elapsed time = 12.30 sec. (14749.88 ticks, tree = 0.80 MB, solutions = 25)
   4187  1202      253.9390    91      253.2939      255.3638   188393    0.82%
*  4533+ 1188                          253.2940      253.3221             0.01%

GUB cover cuts applied:  17
Clique cuts applied:  43
Cover cuts applied:  14
Implied bound cuts applied:  50
Flow cuts applied:  19
Mixed integer rounding cuts applied:  120
Zero-half cuts applied:  54
Lift and project cuts applied:  20
Gomory fractional cuts applied:  8

Root node processing (before b&c):
  Real time             =    0.25 sec. (240.41 ticks)
Sequential b&c:
  Real time             =   13.25 sec. (15947.87 ticks)
                          ------------
Total (root+branch&cut) =   13.50 sec. (16188.28 ticks)

Solution pool: 27 solutions saved.

MIP - Integer optimal, tolerance (0.0001/1e-06):  Objective =  2.5329396122e+02
Current MIP best bound =  2.5331654748e+02 (gap = 0.0225863, 0.01%)
Solution time =   13.50 sec.  Iterations = 194719  Nodes = 4556 (1201)
Deterministic time = 16188.28 ticks  (1199.20 ticks/sec)


Incumbent solution
Variable Name           Solution Value
F                           280.000000
f1                            0.936039
f2                           25.770000
y17                           1.000000
y20                           1.000000
y38                           1.000000
y75                           1.000000
y133                          1.000000
y138                          1.000000
y144                          1.000000
y187                          1.000000
y168                          1.000000
y52                           1.000000
y94                           1.000000
y199                          1.000000
y35                           1.000000
y177                          1.000000
y128                          1.000000
y6                            1.000000
y73                           1.000000
y79                           1.000000
s1                            6.000000
s4                            6.000000
s17                           6.524497
s20                           6.831639
s24                           6.000000
s31                           6.000000
s38                           6.630883
s39                           6.000000
s47                           6.000000
s75                           6.216191
s89                           6.000000
s117                          6.000000
s122                          6.000000
s133                          6.589553
s134                          6.000000
s138                          6.636640
s139                          6.000000
s144                          6.296925
s149                          6.000000
s164                          6.000000
s178                          6.000000
s183                          6.000000
s187                          6.485702
s188                          6.000000
s191                          6.000000
s15                           6.010000
s175                          6.050000
s174                          6.110000
s168                          6.250000
s76                           6.280000
s147                          6.640000
s204                          6.650000
s114                          6.760000
s52                           7.877640
s94                           7.020000
s199                          7.846565
s35                           8.080722
s177                          7.745379
s128                          7.812059
s6                            7.736621
s25                           7.420000
s73                           8.343386
s79                           8.288925
x2x17x1                       2.000000
x109x187x1                    1.000000
x150x20x1                     2.000000
x208x187x1                    1.000000
x148x144x2                    1.000000
x109x133x2                    1.000000
x66x133x2                     1.000000
x152x177x2                    1.000000
x202x138x2                    1.000000
x48x94x2                      1.000000
x48x6x2                       1.000000
x208x75x2                     1.000000
x148x168x3                    1.000000
x66x38x3                      1.000000
x152x94x3                     1.000000
x202x75x3                     1.000000
x116x144x3                    1.000000
x116x168x3                    1.000000
x61x38x3                      1.000000
x61x138x3                     1.000000
x17x0x1                       1.000000
x17x35x1                      1.000000
x20x79x1                      2.000000
x38x52x3                      1.000000
x38x35x3                      1.000000
x75x0x2                       1.000000
x75x52x3                      1.000000
x133x0x2                      2.000000
x138x0x2                      1.000000
x138x73x3                     1.000000
x144x128x2                    1.000000
x144x177x3                    1.000000
x187x199x1                    2.000000
x168x128x3                    1.000000
x168x6x3                      1.000000
x52x0x3                       2.000000
x94x0x2                       1.000000
x94x73x3                      1.000000
x199x0x1                      2.000000
x35x0x1                       1.000000
x35x0x3                       1.000000
x177x0x2                      1.000000
x177x0x3                      1.000000
x128x0x2                      1.000000
x128x0x3                      1.000000
x6x0x2                        1.000000
x6x0x3                        1.000000
x73x0x3                       2.000000
x79x0x1                       2.000000
s148                          4.687340
z148z144z2                    1.000000
z148z168z3                    1.000000
z148z114z3                    1.000000
z148z52z3                     1.000000
z148z25z3                     1.000000
z148z73z3                     1.000000
s2                            4.847690
z2z17z1                       1.000000
z2z199z1                      1.000000
z2z79z1                       1.000000
s109                          4.864270
z109z133z2                    1.000000
z109z187z1                    1.000000
z109z199z1                    1.000000
z109z79z1                     1.000000
s66                           5.009470
z66z38z3                      1.000000
z66z133z2                     1.000000
z66z114z3                     1.000000
z66z52z3                      1.000000
z66z25z3                      1.000000
z66z73z3                      1.000000
s152                          5.043280
z152z94z3                     1.000000
z152z177z2                    1.000000
z152z25z3                     1.000000
z152z73z3                     1.000000
s202                          4.883390
z202z75z3                     1.000000
z202z138z2                    1.000000
z202z114z3                    1.000000
z202z52z3                     1.000000
z202z25z3                     1.000000
z202z73z3                     1.000000
s48                           5.039960
z48z94z2                      1.000000
z48z6z2                       1.000000
s150                          5.150460
z150z20z1                     1.000000
z150z79z1                     1.000000
s116                          4.851880
z116z144z3                    1.000000
z116z168z3                    1.000000
z116z114z3                    1.000000
z116z52z3                     1.000000
z116z25z3                     1.000000
z116z73z3                     1.000000
s61                           5.233070
z61z38z3                      1.000000
z61z138z3                     1.000000
z61z114z3                     1.000000
z61z52z3                      1.000000
z61z25z3                      1.000000
z61z73z3                      1.000000
s208                          4.980150
z208z75z2                     1.000000
z208z187z1                    1.000000
z208z199z1                    1.000000
z208z79z1                     1.000000
z17z35z1                      1.000000
z20z79z1                      1.000000
z38z52z3                      1.000000
z38z35z3                      1.000000
z75z52z3                      1.000000
z138z73z3                     1.000000
z144z177z3                    1.000000
z144z128z2                    1.000000
z187z199z1                    1.000000
z15z73z3                      1.000000
z168z128z3                    1.000000
z168z6z3                      1.000000
z168z73z3                     1.000000
z94z73z3                      1.000000
All other variables in the range 1-1428 are 0.
